benchmark/results/graph__15-1000-0.10-04_12/graph__15-1000-0.10-04_12_Quinton_Benders_primal_sub.lp
\ This file has been generated by DOcplex
\ ENCODING=ISO-8859-1
\Problem name: Quinton Benders_primal_sub

Maximize
 obj: tau
Subject To
 c1: tau <= 0.001984126984
 c2: y_a0_proc_0 + y_a0_proc_1 + y_a0_proc_2 + y_a0_proc_3 - tau = 0
 c3: y_a0_proc_0 <= 0
 c4: y_a0_proc_1 <= 1
 c5: y_a0_proc_2 <= 0
 c6: y_a0_proc_3 <= 0
 c7: tau <= 0.003508771930
 c8: y_a1_proc_0 + y_a1_proc_2 + y_a1_proc_3 - tau = 0
 c9: y_a1_proc_0 <= 0
 c10: y_a1_proc_2 <= 0
 c11: y_a1_proc_3 <= 1
 c12: tau <= 0.001303780965
 c13: y_a2_proc_0 + y_a2_proc_2 + y_a2_proc_3 - tau = 0
 c14: y_a2_proc_0 <= 0
 c15: y_a2_proc_2 <= 1
 c16: y_a2_proc_3 <= 0
 c17: tau <= 0.000906618314
 c18: y_a3_proc_0 + y_a3_proc_3 - tau = 0
 c19: y_a3_proc_0 <= 1
 c20: y_a3_proc_3 <= 0
 c21: tau <= 0.001003009027
 c22: y_a4_proc_1 + y_a4_proc_2 + y_a4_proc_3 - tau = 0
 c23: y_a4_proc_1 <= 0
 c24: y_a4_proc_2 <= 1
 c25: y_a4_proc_3 <= 0
 c26: tau <= 0.000851788756
 c27: y_a5_proc_0 + y_a5_proc_1 + y_a5_proc_3 - tau = 0
 c28: y_a5_proc_0 <= 0
 c29: y_a5_proc_1 <= 1
 c30: y_a5_proc_3 <= 0
 c31: tau <= 0.000835421888
 c32: y_a6_proc_0 + y_a6_proc_1 + y_a6_proc_3 - tau = 0
 c33: y_a6_proc_0 <= 0
 c34: y_a6_proc_1 <= 1
 c35: y_a6_proc_3 <= 0
 c36: tau <= 0.001869158879
 c37: y_a7_proc_0 + y_a7_proc_1 + y_a7_proc_2 + y_a7_proc_3 - tau = 0
 c38: y_a7_proc_0 <= 0
 c39: y_a7_proc_1 <= 0
 c40: y_a7_proc_2 <= 0
 c41: y_a7_proc_3 <= 1
 c42: tau <= 0.001779359431
 c43: y_a8_proc_0 + y_a8_proc_1 + y_a8_proc_3 - tau = 0
 c44: y_a8_proc_0 <= 0
 c45: y_a8_proc_1 <= 0
 c46: y_a8_proc_3 <= 1
 c47: tau <= 0.001703577513
 c48: y_a9_proc_0 + y_a9_proc_1 - tau = 0
 c49: y_a9_proc_0 <= 1
 c50: y_a9_proc_1 <= 0
 c51: tau <= 0.003267973856
 c52: y_a10_proc_2 + y_a10_proc_3 - tau = 0
 c53: y_a10_proc_2 <= 0
 c54: y_a10_proc_3 <= 1
 c55: tau <= 0.001592356688
 c56: y_a11_proc_0 + y_a11_proc_1 + y_a11_proc_2 + y_a11_proc_3 - tau = 0
 c57: y_a11_proc_0 <= 0
 c58: y_a11_proc_1 <= 0
 c59: y_a11_proc_2 <= 0
 c60: y_a11_proc_3 <= 1
 c61: tau <= 0.001567398119
 c62: y_a12_proc_0 + y_a12_proc_1 + y_a12_proc_3 - tau = 0
 c63: y_a12_proc_0 <= 1
 c64: y_a12_proc_1 <= 0
 c65: y_a12_proc_3 <= 0
 c66: tau <= 0.000897666068
 c67: y_a13_proc_0 + y_a13_proc_2 + y_a13_proc_3 - tau = 0
 c68: y_a13_proc_0 <= 1
 c69: y_a13_proc_2 <= 0
 c70: y_a13_proc_3 <= 0
 c71: tau <= 0.001060445387
 c72: y_a14_proc_0 + y_a14_proc_1 + y_a14_proc_2 + y_a14_proc_3 - tau = 0
 c73: y_a14_proc_0 <= 0
 c74: y_a14_proc_1 <= 0
 c75: y_a14_proc_2 <= 1
 c76: y_a14_proc_3 <= 0
 c77: u_a0 - u_a1 - 634 y_a1_proc_0 - 1036 y_a1_proc_2 - 285 y_a1_proc_3 >= 0
 c78: u_a1 - u_a2 - 1077 y_a2_proc_0 - 767 y_a2_proc_2 - 1175 y_a2_proc_3 >= 0
 c79: u_a3 - u_a2 - 1077 y_a2_proc_0 - 767 y_a2_proc_2 - 1175 y_a2_proc_3 >= -1
 c80: u_a2 - u_a4 - 1039 y_a4_proc_1 - 997 y_a4_proc_2 - 1173 y_a4_proc_3 >= 0
 c81: u_a3 - u_a5 - 888 y_a5_proc_0 - 1174 y_a5_proc_1 - 930 y_a5_proc_3 >= 0
 c82: u_a6 - u_a0 - 909 y_a0_proc_0 - 504 y_a0_proc_1 - 1043 y_a0_proc_2
      - 1181 y_a0_proc_3 >= -1
 c83: u_a6 - u_a7 - 1251 y_a7_proc_0 - 1132 y_a7_proc_1 - 1092 y_a7_proc_2
      - 535 y_a7_proc_3 >= 0
 c84: u_a8 - u_a4 - 1039 y_a4_proc_1 - 997 y_a4_proc_2 - 1173 y_a4_proc_3 >= -1
 c85: u_a1 - u_a9 - 587 y_a9_proc_0 - 657 y_a9_proc_1 >= 0
 c86: u_a10 - u_a3 - 1103 y_a3_proc_0 - 1005 y_a3_proc_3 >= -1
 c87: u_a9 - u_a11 - 1277 y_a11_proc_0 - 769 y_a11_proc_1 - 983 y_a11_proc_2
      - 628 y_a11_proc_3 >= -1
 c88: u_a11 - u_a12 - 638 y_a12_proc_0 - 733 y_a12_proc_1 - 630 y_a12_proc_3
       >= 0
 c89: u_a13 - u_a12 - 638 y_a12_proc_0 - 733 y_a12_proc_1 - 630 y_a12_proc_3
       >= 0
 c90: u_a5 - u_a14 - 1074 y_a14_proc_0 - 1279 y_a14_proc_1 - 943 y_a14_proc_2
      - 993 y_a14_proc_3 >= 0
 c91: - 954 y_a10_proc_2 - 306 y_a10_proc_3 >= -1
 c92: u_a14 - u_a9 - 587 y_a9_proc_0 - 657 y_a9_proc_1 >= 0
 c93: u_a10 - u_a7 - 1251 y_a7_proc_0 - 1132 y_a7_proc_1 - 1092 y_a7_proc_2
      - 535 y_a7_proc_3 >= 0
 c94: u_a8 - u_a10 - 954 y_a10_proc_2 - 306 y_a10_proc_3 >= 0
 c95: u_a12 - u_a4 - 1039 y_a4_proc_1 - 997 y_a4_proc_2 - 1173 y_a4_proc_3 >= 0
 c96: u_a7 - u_a14 - 1074 y_a14_proc_0 - 1279 y_a14_proc_1 - 943 y_a14_proc_2
      - 993 y_a14_proc_3 >= 0
 c97: u_a9 - u_a6 - 1001 y_a6_proc_0 - 1197 y_a6_proc_1 - 634 y_a6_proc_3 >= -1
 c98: u_a14 - u_a1 - 634 y_a1_proc_0 - 1036 y_a1_proc_2 - 285 y_a1_proc_3 >= -1
 c99: u_a8 - u_a12 - 638 y_a12_proc_0 - 733 y_a12_proc_1 - 630 y_a12_proc_3 >= 
      -1
 c100: u_a3 - u_a14 - 1074 y_a14_proc_0 - 1279 y_a14_proc_1 - 943 y_a14_proc_2
       - 993 y_a14_proc_3 >= 0
 c101: u_a13 - u_a2 - 1077 y_a2_proc_0 - 767 y_a2_proc_2 - 1175 y_a2_proc_3 >= 
       0
 c102: u_a5 - u_a3 - 1103 y_a3_proc_0 - 1005 y_a3_proc_3 >= -1
 c103: u_a5 - u_a13 - 1114 y_a13_proc_0 - 891 y_a13_proc_2 - 1078 y_a13_proc_3
        >= -1
 c104: u_a12 - u_a1 - 634 y_a1_proc_0 - 1036 y_a1_proc_2 - 285 y_a1_proc_3 >= 0
 c105: u_a4 - u_a8 - 774 y_a8_proc_0 - 568 y_a8_proc_1 - 562 y_a8_proc_3 >= 0
 c106: u_a14 - u_a11 - 1277 y_a11_proc_0 - 769 y_a11_proc_1 - 983 y_a11_proc_2
       - 628 y_a11_proc_3 >= -1
 c107: u_a1 - u_a0 - 909 y_a0_proc_0 >= -3838
 c108: u_a1 - u_a0 - 1043 y_a0_proc_2 >= -3838
 c109: u_a1 - u_a0 - 1181 y_a0_proc_3 >= -2559
 c110: u_a0 - u_a1 - 634 y_a1_proc_0 >= -1279
 c111: u_a0 - u_a1 - 1036 y_a1_proc_2 >= -1279
 c112: u_a0 - u_a1 - 285 y_a1_proc_3 >= 0
 c113: u_a2 - u_a0 - 909 y_a0_proc_0 >= -3838
 c114: u_a2 - u_a0 - 1043 y_a0_proc_2 >= -2559
 c115: u_a2 - u_a0 - 1181 y_a0_proc_3 >= -3838
 c116: u_a0 - u_a2 - 1077 y_a2_proc_0 >= -1279
 c117: u_a0 - u_a2 - 767 y_a2_proc_2 >= 0
 c118: u_a0 - u_a2 - 1175 y_a2_proc_3 >= -1279
 c119: u_a3 - u_a0 - 909 y_a0_proc_0 >= -2559
 c120: u_a3 - u_a0 - 1181 y_a0_proc_3 >= -3838
 c121: u_a0 - u_a3 - 1103 y_a3_proc_0 >= 0
 c122: u_a0 - u_a3 - 1005 y_a3_proc_3 >= -1279
 c123: u_a4 - u_a0 - 1043 y_a0_proc_2 >= -2559
 c124: u_a4 - u_a0 - 1181 y_a0_proc_3 >= -3838
 c125: u_a4 - u_a0 - 504 y_a0_proc_1 >= -2559
 c126: u_a0 - u_a4 - 997 y_a4_proc_2 >= 0
 c127: u_a0 - u_a4 - 1173 y_a4_proc_3 >= -1279
 c128: u_a0 - u_a4 - 1039 y_a4_proc_1 >= 0
 c129: u_a5 - u_a0 - 909 y_a0_proc_0 >= -2559
 c130: u_a5 - u_a0 - 1181 y_a0_proc_3 >= -2559
 c131: u_a5 - u_a0 - 504 y_a0_proc_1 >= -1
 c132: u_a0 - u_a5 - 888 y_a5_proc_0 >= -2558
 c133: u_a0 - u_a5 - 930 y_a5_proc_3 >= -2558
 c134: u_a0 - u_a5 - 1174 y_a5_proc_1 >= 0
 c135: u_a6 - u_a0 - 909 y_a0_proc_0 >= -2558
 c136: u_a6 - u_a0 - 1181 y_a0_proc_3 >= -2558
 c137: u_a6 - u_a0 - 504 y_a0_proc_1 >= 0
 c138: u_a0 - u_a6 - 1001 y_a6_proc_0 >= -2559
 c139: u_a0 - u_a6 - 634 y_a6_proc_3 >= -2559
 c140: u_a0 - u_a6 - 1197 y_a6_proc_1 >= -1
 c141: u_a7 - u_a0 - 909 y_a0_proc_0 >= -3838
 c142: u_a7 - u_a0 - 1043 y_a0_proc_2 >= -3838
 c143: u_a7 - u_a0 - 1181 y_a0_proc_3 >= -2559
 c144: u_a7 - u_a0 - 504 y_a0_proc_1 >= -2559
 c145: u_a0 - u_a7 - 1251 y_a7_proc_0 >= -1279
 c146: u_a0 - u_a7 - 1092 y_a7_proc_2 >= -1279
 c147: u_a0 - u_a7 - 535 y_a7_proc_3 >= 0
 c148: u_a0 - u_a7 - 1132 y_a7_proc_1 >= 0
 c149: u_a8 - u_a0 - 909 y_a0_proc_0 >= -3838
 c150: u_a8 - u_a0 - 1181 y_a0_proc_3 >= -2559
 c151: u_a8 - u_a0 - 504 y_a0_proc_1 >= -2559
 c152: u_a0 - u_a8 - 774 y_a8_proc_0 >= -1279
 c153: u_a0 - u_a8 - 562 y_a8_proc_3 >= 0
 c154: u_a0 - u_a8 - 568 y_a8_proc_1 >= 0
 c155: u_a9 - u_a0 - 909 y_a0_proc_0 >= -2559
 c156: u_a9 - u_a0 - 504 y_a0_proc_1 >= -2559
 c157: u_a0 - u_a9 - 587 y_a9_proc_0 >= 0
 c158: u_a0 - u_a9 - 657 y_a9_proc_1 >= 0
 c159: u_a10 - u_a0 - 1043 y_a0_proc_2 >= -3838
 c160: u_a10 - u_a0 - 1181 y_a0_proc_3 >= -2559
 c161: u_a0 - u_a10 - 954 y_a10_proc_2 >= -1279
 c162: u_a0 - u_a10 - 306 y_a10_proc_3 >= 0
 c163: u_a11 - u_a0 - 909 y_a0_proc_0 >= -3837
 c164: u_a11 - u_a0 - 1043 y_a0_proc_2 >= -3837
 c165: u_a11 - u_a0 - 1181 y_a0_proc_3 >= -2558
 c166: u_a11 - u_a0 - 504 y_a0_proc_1 >= -2558
 c167: u_a0 - u_a11 - 1277 y_a11_proc_0 >= -1280
 c168: u_a0 - u_a11 - 983 y_a11_proc_2 >= -1280
 c169: u_a0 - u_a11 - 628 y_a11_proc_3 >= -1
 c170: u_a0 - u_a11 - 769 y_a11_proc_1 >= -1
 c171: u_a12 - u_a0 - 909 y_a0_proc_0 >= -1
 c172: u_a12 - u_a0 - 1181 y_a0_proc_3 >= -1280
 c173: u_a12 - u_a0 - 504 y_a0_proc_1 >= -1
 c174: u_a0 - u_a12 - 638 y_a12_proc_0 >= -2558
 c175: u_a0 - u_a12 - 630 y_a12_proc_3 >= -3837
 c176: u_a0 - u_a12 - 733 y_a12_proc_1 >= -2558
 c177: u_a13 - u_a0 - 909 y_a0_proc_0 >= -2558
 c178: u_a13 - u_a0 - 1043 y_a0_proc_2 >= -3837
 c179: u_a13 - u_a0 - 1181 y_a0_proc_3 >= -3837
 c180: u_a0 - u_a13 - 1114 y_a13_proc_0 >= -1
 c181: u_a0 - u_a13 - 891 y_a13_proc_2 >= -1280
 c182: u_a0 - u_a13 - 1078 y_a13_proc_3 >= -1280
 c183: u_a14 - u_a0 - 909 y_a0_proc_0 >= -3838
 c184: u_a14 - u_a0 - 1043 y_a0_proc_2 >= -2559
 c185: u_a14 - u_a0 - 1181 y_a0_proc_3 >= -3838
 c186: u_a14 - u_a0 - 504 y_a0_proc_1 >= -2559
 c187: u_a0 - u_a14 - 1074 y_a14_proc_0 >= -1279
 c188: u_a0 - u_a14 - 943 y_a14_proc_2 >= 0
 c189: u_a0 - u_a14 - 993 y_a14_proc_3 >= -1279
 c190: u_a0 - u_a14 - 1279 y_a14_proc_1 >= 0
 c191: u_a2 - u_a1 - 634 y_a1_proc_0 >= -3837
 c192: u_a2 - u_a1 - 1036 y_a1_proc_2 >= -2558
 c193: u_a2 - u_a1 - 285 y_a1_proc_3 >= -2558
 c194: u_a1 - u_a2 - 1077 y_a2_proc_0 >= -1280
 c195: u_a1 - u_a2 - 767 y_a2_proc_2 >= -1
 c196: u_a1 - u_a2 - 1175 y_a2_proc_3 >= -1
 c197: u_a3 - u_a1 - 634 y_a1_proc_0 >= -2559
 c198: u_a3 - u_a1 - 285 y_a1_proc_3 >= -2559
 c199: u_a1 - u_a3 - 1103 y_a3_proc_0 >= 0
 c200: u_a1 - u_a3 - 1005 y_a3_proc_3 >= 0
 c201: u_a4 - u_a1 - 1036 y_a1_proc_2 >= -2559
 c202: u_a4 - u_a1 - 285 y_a1_proc_3 >= -2559
 c203: u_a1 - u_a4 - 997 y_a4_proc_2 >= 0
 c204: u_a1 - u_a4 - 1173 y_a4_proc_3 >= 0
 c205: u_a5 - u_a1 - 634 y_a1_proc_0 >= -3838
 c206: u_a5 - u_a1 - 285 y_a1_proc_3 >= -2559
 c207: u_a1 - u_a5 - 888 y_a5_proc_0 >= -1279
 c208: u_a1 - u_a5 - 930 y_a5_proc_3 >= 0
 c209: u_a6 - u_a1 - 634 y_a1_proc_0 >= -3837
 c210: u_a6 - u_a1 - 285 y_a1_proc_3 >= -2558
 c211: u_a1 - u_a6 - 1001 y_a6_proc_0 >= -1280
 c212: u_a1 - u_a6 - 634 y_a6_proc_3 >= -1
 c213: u_a7 - u_a1 - 634 y_a1_proc_0 >= -2559
 c214: u_a7 - u_a1 - 1036 y_a1_proc_2 >= -2559
 c215: u_a7 - u_a1 - 285 y_a1_proc_3 >= -1
 c216: u_a1 - u_a7 - 1251 y_a7_proc_0 >= -2558
 c217: u_a1 - u_a7 - 1092 y_a7_proc_2 >= -2558
 c218: u_a1 - u_a7 - 535 y_a7_proc_3 >= 0
 c219: u_a8 - u_a1 - 634 y_a1_proc_0 >= -2559
 c220: u_a8 - u_a1 - 285 y_a1_proc_3 >= -1
 c221: u_a1 - u_a8 - 774 y_a8_proc_0 >= -2558
 c222: u_a1 - u_a8 - 562 y_a8_proc_3 >= 0
 c223: u_a9 - u_a1 - 634 y_a1_proc_0 >= -2559
 c224: u_a1 - u_a9 - 587 y_a9_proc_0 >= 0
 c225: u_a10 - u_a1 - 1036 y_a1_proc_2 >= -2559
 c226: u_a10 - u_a1 - 285 y_a1_proc_3 >= -1
 c227: u_a1 - u_a10 - 954 y_a10_proc_2 >= -2558
 c228: u_a1 - u_a10 - 306 y_a10_proc_3 >= 0
 c229: u_a11 - u_a1 - 634 y_a1_proc_0 >= -2558
 c230: u_a11 - u_a1 - 1036 y_a1_proc_2 >= -2558
 c231: u_a11 - u_a1 - 285 y_a1_proc_3 >= 0
 c232: u_a1 - u_a11 - 1277 y_a11_proc_0 >= -2559
 c233: u_a1 - u_a11 - 983 y_a11_proc_2 >= -2559
 c234: u_a1 - u_a11 - 628 y_a11_proc_3 >= -1
 c235: u_a12 - u_a1 - 634 y_a1_proc_0 >= -2558
 c236: u_a12 - u_a1 - 285 y_a1_proc_3 >= -2558
 c237: u_a1 - u_a12 - 638 y_a12_proc_0 >= -1
 c238: u_a1 - u_a12 - 630 y_a12_proc_3 >= -1
 c239: u_a13 - u_a1 - 634 y_a1_proc_0 >= -2558
 c240: u_a13 - u_a1 - 1036 y_a1_proc_2 >= -3837
 c241: u_a13 - u_a1 - 285 y_a1_proc_3 >= -2558
 c242: u_a1 - u_a13 - 1114 y_a13_proc_0 >= -1
 c243: u_a1 - u_a13 - 891 y_a13_proc_2 >= -1280
 c244: u_a1 - u_a13 - 1078 y_a13_proc_3 >= -1
 c245: u_a14 - u_a1 - 634 y_a1_proc_0 >= -3838
 c246: u_a14 - u_a1 - 1036 y_a1_proc_2 >= -2559
 c247: u_a14 - u_a1 - 285 y_a1_proc_3 >= -2559
 c248: u_a1 - u_a14 - 1074 y_a14_proc_0 >= -1279
 c249: u_a1 - u_a14 - 943 y_a14_proc_2 >= 0
 c250: u_a1 - u_a14 - 993 y_a14_proc_3 >= 0
 c251: u_a3 - u_a2 - 1077 y_a2_proc_0 >= -444
 c252: u_a3 - u_a2 - 1175 y_a2_proc_3 >= -1723
 c253: u_a2 - u_a3 - 1103 y_a3_proc_0 >= -2115
 c254: u_a2 - u_a3 - 1005 y_a3_proc_3 >= -3394
 c255: u_a4 - u_a2 - 767 y_a2_proc_2 >= -1
 c256: u_a4 - u_a2 - 1175 y_a2_proc_3 >= -2559
 c257: u_a2 - u_a4 - 997 y_a4_proc_2 >= 0
 c258: u_a2 - u_a4 - 1173 y_a4_proc_3 >= -2558
 c259: u_a5 - u_a2 - 1077 y_a2_proc_0 >= -5117
 c260: u_a5 - u_a2 - 1175 y_a2_proc_3 >= -5117
 c261: u_a2 - u_a5 - 888 y_a5_proc_0 >= 0
 c262: u_a2 - u_a5 - 930 y_a5_proc_3 >= 0
 c263: u_a6 - u_a2 - 1077 y_a2_proc_0 >= -5116
 c264: u_a6 - u_a2 - 1175 y_a2_proc_3 >= -5116
 c265: u_a2 - u_a6 - 1001 y_a6_proc_0 >= -1
 c266: u_a2 - u_a6 - 634 y_a6_proc_3 >= -1
 c267: u_a7 - u_a2 - 1077 y_a2_proc_0 >= -3838
 c268: u_a7 - u_a2 - 767 y_a2_proc_2 >= -2559
 c269: u_a7 - u_a2 - 1175 y_a2_proc_3 >= -2559
 c270: u_a2 - u_a7 - 1251 y_a7_proc_0 >= -1279
 c271: u_a2 - u_a7 - 1092 y_a7_proc_2 >= 0
 c272: u_a2 - u_a7 - 535 y_a7_proc_3 >= 0
 c273: u_a8 - u_a2 - 1077 y_a2_proc_0 >= -3838
 c274: u_a8 - u_a2 - 1175 y_a2_proc_3 >= -2559
 c275: u_a2 - u_a8 - 774 y_a8_proc_0 >= -1279
 c276: u_a2 - u_a8 - 562 y_a8_proc_3 >= 0
 c277: u_a9 - u_a2 - 1077 y_a2_proc_0 >= -2559
 c278: u_a2 - u_a9 - 587 y_a9_proc_0 >= 0
 c279: u_a10 - u_a2 - 767 y_a2_proc_2 >= -2559
 c280: u_a10 - u_a2 - 1175 y_a2_proc_3 >= -2559
 c281: u_a2 - u_a10 - 954 y_a10_proc_2 >= 0
 c282: u_a2 - u_a10 - 306 y_a10_proc_3 >= 0
 c283: u_a11 - u_a2 - 1077 y_a2_proc_0 >= -3837
 c284: u_a11 - u_a2 - 767 y_a2_proc_2 >= -2558
 c285: u_a11 - u_a2 - 1175 y_a2_proc_3 >= -2558
 c286: u_a2 - u_a11 - 1277 y_a11_proc_0 >= -1280
 c287: u_a2 - u_a11 - 983 y_a11_proc_2 >= -1
 c288: u_a2 - u_a11 - 628 y_a11_proc_3 >= -1
 c289: u_a12 - u_a2 - 1077 y_a2_proc_0 >= -2558
 c290: u_a12 - u_a2 - 1175 y_a2_proc_3 >= -3837
 c291: u_a2 - u_a12 - 638 y_a12_proc_0 >= -1
 c292: u_a2 - u_a12 - 630 y_a12_proc_3 >= -1280
 c293: u_a13 - u_a2 - 1077 y_a2_proc_0 >= -2558
 c294: u_a13 - u_a2 - 767 y_a2_proc_2 >= -2558
 c295: u_a13 - u_a2 - 1175 y_a2_proc_3 >= -3837
 c296: u_a2 - u_a13 - 1114 y_a13_proc_0 >= -1
 c297: u_a2 - u_a13 - 891 y_a13_proc_2 >= -1
 c298: u_a2 - u_a13 - 1078 y_a13_proc_3 >= -1280
 c299: u_a14 - u_a2 - 1077 y_a2_proc_0 >= -2559
 c300: u_a14 - u_a2 - 767 y_a2_proc_2 >= -1
 c301: u_a14 - u_a2 - 1175 y_a2_proc_3 >= -2559
 c302: u_a2 - u_a14 - 1074 y_a14_proc_0 >= -2558
 c303: u_a2 - u_a14 - 943 y_a14_proc_2 >= 0
 c304: u_a2 - u_a14 - 993 y_a14_proc_3 >= -2558
 c305: u_a4 - u_a3 - 1005 y_a3_proc_3 >= -5116
 c306: u_a3 - u_a4 - 1173 y_a4_proc_3 >= -1
 c307: u_a5 - u_a3 - 1103 y_a3_proc_0 >= -2559
 c308: u_a5 - u_a3 - 1005 y_a3_proc_3 >= -3838
 c309: u_a3 - u_a5 - 888 y_a5_proc_0 >= 0
 c310: u_a3 - u_a5 - 930 y_a5_proc_3 >= -1279
 c311: u_a6 - u_a3 - 1103 y_a3_proc_0 >= 0
 c312: u_a6 - u_a3 - 1005 y_a3_proc_3 >= -1279
 c313: u_a3 - u_a6 - 1001 y_a6_proc_0 >= -2559
 c314: u_a3 - u_a6 - 634 y_a6_proc_3 >= -3838
 c315: u_a7 - u_a3 - 1103 y_a3_proc_0 >= -2559
 c316: u_a7 - u_a3 - 1005 y_a3_proc_3 >= -2559
 c317: u_a3 - u_a7 - 1251 y_a7_proc_0 >= 0
 c318: u_a3 - u_a7 - 535 y_a7_proc_3 >= 0
 c319: u_a8 - u_a3 - 1103 y_a3_proc_0 >= -2558
 c320: u_a8 - u_a3 - 1005 y_a3_proc_3 >= -2558
 c321: u_a3 - u_a8 - 774 y_a8_proc_0 >= -1
 c322: u_a3 - u_a8 - 562 y_a8_proc_3 >= -1
 c323: u_a9 - u_a3 - 1103 y_a3_proc_0 >= -1
 c324: u_a3 - u_a9 - 587 y_a9_proc_0 >= 0
 c325: u_a10 - u_a3 - 1005 y_a3_proc_3 >= -2559
 c326: u_a3 - u_a10 - 306 y_a10_proc_3 >= 0
 c327: u_a11 - u_a3 - 1103 y_a3_proc_0 >= -2558
 c328: u_a11 - u_a3 - 1005 y_a3_proc_3 >= -2558
 c329: u_a3 - u_a11 - 1277 y_a11_proc_0 >= -1
 c330: u_a3 - u_a11 - 628 y_a11_proc_3 >= -1
 c331: u_a12 - u_a3 - 1103 y_a3_proc_0 >= 0
 c332: u_a12 - u_a3 - 1005 y_a3_proc_3 >= -2558
 c333: u_a3 - u_a12 - 638 y_a12_proc_0 >= -1
 c334: u_a3 - u_a12 - 630 y_a12_proc_3 >= -2559
 c335: u_a13 - u_a3 - 1103 y_a3_proc_0 >= 0
 c336: u_a13 - u_a3 - 1005 y_a3_proc_3 >= -2558
 c337: u_a3 - u_a13 - 1114 y_a13_proc_0 >= -1
 c338: u_a3 - u_a13 - 1078 y_a13_proc_3 >= -2559
 c339: u_a14 - u_a3 - 1103 y_a3_proc_0 >= -2559
 c340: u_a14 - u_a3 - 1005 y_a3_proc_3 >= -3838
 c341: u_a3 - u_a14 - 1074 y_a14_proc_0 >= 0
 c342: u_a3 - u_a14 - 993 y_a14_proc_3 >= -1279
 c343: u_a5 - u_a4 - 1173 y_a4_proc_3 >= -3838
 c344: u_a5 - u_a4 - 1039 y_a4_proc_1 >= -2559
 c345: u_a4 - u_a5 - 930 y_a5_proc_3 >= -1279
 c346: u_a4 - u_a5 - 1174 y_a5_proc_1 >= 0
 c347: u_a6 - u_a4 - 1173 y_a4_proc_3 >= -3837
 c348: u_a6 - u_a4 - 1039 y_a4_proc_1 >= -2558
 c349: u_a4 - u_a6 - 634 y_a6_proc_3 >= -1280
 c350: u_a4 - u_a6 - 1197 y_a6_proc_1 >= -1
 c351: u_a7 - u_a4 - 997 y_a4_proc_2 >= -2559
 c352: u_a7 - u_a4 - 1173 y_a4_proc_3 >= -2559
 c353: u_a7 - u_a4 - 1039 y_a4_proc_1 >= -3838
 c354: u_a4 - u_a7 - 1092 y_a7_proc_2 >= 0
 c355: u_a4 - u_a7 - 535 y_a7_proc_3 >= 0
 c356: u_a4 - u_a7 - 1132 y_a7_proc_1 >= -1279
 c357: u_a8 - u_a4 - 1173 y_a4_proc_3 >= -2559
 c358: u_a8 - u_a4 - 1039 y_a4_proc_1 >= -3838
 c359: u_a4 - u_a8 - 562 y_a8_proc_3 >= 0
 c360: u_a4 - u_a8 - 568 y_a8_proc_1 >= -1279
 c361: u_a9 - u_a4 - 1039 y_a4_proc_1 >= -5117
 c362: u_a4 - u_a9 - 657 y_a9_proc_1 >= 0
 c363: u_a10 - u_a4 - 997 y_a4_proc_2 >= -2558
 c364: u_a10 - u_a4 - 1173 y_a4_proc_3 >= -2558
 c365: u_a4 - u_a10 - 954 y_a10_proc_2 >= -1
 c366: u_a4 - u_a10 - 306 y_a10_proc_3 >= -1
 c367: u_a11 - u_a4 - 997 y_a4_proc_2 >= -2558
 c368: u_a11 - u_a4 - 1173 y_a4_proc_3 >= -2558
 c369: u_a11 - u_a4 - 1039 y_a4_proc_1 >= -3837
 c370: u_a4 - u_a11 - 983 y_a11_proc_2 >= -1
 c371: u_a4 - u_a11 - 628 y_a11_proc_3 >= -1
 c372: u_a4 - u_a11 - 769 y_a11_proc_1 >= -1280
 c373: u_a12 - u_a4 - 1173 y_a4_proc_3 >= -5116
 c374: u_a12 - u_a4 - 1039 y_a4_proc_1 >= -5116
 c375: u_a4 - u_a12 - 630 y_a12_proc_3 >= -1
 c376: u_a4 - u_a12 - 733 y_a12_proc_1 >= -1
 c377: u_a13 - u_a4 - 997 y_a4_proc_2 >= -2558
 c378: u_a13 - u_a4 - 1173 y_a4_proc_3 >= -3837
 c379: u_a4 - u_a13 - 891 y_a13_proc_2 >= -1
 c380: u_a4 - u_a13 - 1078 y_a13_proc_3 >= -1280
 c381: u_a14 - u_a4 - 997 y_a4_proc_2 >= -1
 c382: u_a14 - u_a4 - 1173 y_a4_proc_3 >= -2559
 c383: u_a14 - u_a4 - 1039 y_a4_proc_1 >= -2559
 c384: u_a4 - u_a14 - 943 y_a14_proc_2 >= 0
 c385: u_a4 - u_a14 - 993 y_a14_proc_3 >= -2558
 c386: u_a4 - u_a14 - 1279 y_a14_proc_1 >= -2558
 c387: u_a6 - u_a5 - 888 y_a5_proc_0 >= -2558
 c388: u_a6 - u_a5 - 930 y_a5_proc_3 >= -2558
 c389: u_a6 - u_a5 - 1174 y_a5_proc_1 >= 0
 c390: u_a5 - u_a6 - 1001 y_a6_proc_0 >= -2559
 c391: u_a5 - u_a6 - 634 y_a6_proc_3 >= -2559
 c392: u_a5 - u_a6 - 1197 y_a6_proc_1 >= -1
 c393: u_a7 - u_a5 - 888 y_a5_proc_0 >= -3837
 c394: u_a7 - u_a5 - 930 y_a5_proc_3 >= -2558
 c395: u_a7 - u_a5 - 1174 y_a5_proc_1 >= -2558
 c396: u_a5 - u_a7 - 1251 y_a7_proc_0 >= -1280
 c397: u_a5 - u_a7 - 535 y_a7_proc_3 >= -1
 c398: u_a5 - u_a7 - 1132 y_a7_proc_1 >= -1
 c399: u_a8 - u_a5 - 888 y_a5_proc_0 >= -3837
 c400: u_a8 - u_a5 - 930 y_a5_proc_3 >= -2558
 c401: u_a8 - u_a5 - 1174 y_a5_proc_1 >= -2558
 c402: u_a5 - u_a8 - 774 y_a8_proc_0 >= -1280
 c403: u_a5 - u_a8 - 562 y_a8_proc_3 >= -1
 c404: u_a5 - u_a8 - 568 y_a8_proc_1 >= -1
 c405: u_a9 - u_a5 - 888 y_a5_proc_0 >= -2559
 c406: u_a9 - u_a5 - 1174 y_a5_proc_1 >= -2559
 c407: u_a5 - u_a9 - 587 y_a9_proc_0 >= 0
 c408: u_a5 - u_a9 - 657 y_a9_proc_1 >= 0
 c409: u_a10 - u_a5 - 930 y_a5_proc_3 >= -2558
 c410: u_a5 - u_a10 - 306 y_a10_proc_3 >= -1
 c411: u_a11 - u_a5 - 888 y_a5_proc_0 >= -3837
 c412: u_a11 - u_a5 - 930 y_a5_proc_3 >= -2558
 c413: u_a11 - u_a5 - 1174 y_a5_proc_1 >= -2558
 c414: u_a5 - u_a11 - 1277 y_a11_proc_0 >= -1280
 c415: u_a5 - u_a11 - 628 y_a11_proc_3 >= -1
 c416: u_a5 - u_a11 - 769 y_a11_proc_1 >= -1
 c417: u_a12 - u_a5 - 888 y_a5_proc_0 >= -2558
 c418: u_a12 - u_a5 - 930 y_a5_proc_3 >= -3837
 c419: u_a12 - u_a5 - 1174 y_a5_proc_1 >= -2558
 c420: u_a5 - u_a12 - 638 y_a12_proc_0 >= -1
 c421: u_a5 - u_a12 - 630 y_a12_proc_3 >= -1280
 c422: u_a5 - u_a12 - 733 y_a12_proc_1 >= -1
 c423: u_a13 - u_a5 - 888 y_a5_proc_0 >= -2558
 c424: u_a13 - u_a5 - 930 y_a5_proc_3 >= -3837
 c425: u_a5 - u_a13 - 1114 y_a13_proc_0 >= -1
 c426: u_a5 - u_a13 - 1078 y_a13_proc_3 >= -1280
 c427: u_a14 - u_a5 - 888 y_a5_proc_0 >= -3838
 c428: u_a14 - u_a5 - 930 y_a5_proc_3 >= -3838
 c429: u_a14 - u_a5 - 1174 y_a5_proc_1 >= -2559
 c430: u_a5 - u_a14 - 1074 y_a14_proc_0 >= -1279
 c431: u_a5 - u_a14 - 993 y_a14_proc_3 >= -1279
 c432: u_a5 - u_a14 - 1279 y_a14_proc_1 >= 0
 c433: u_a7 - u_a6 - 1001 y_a6_proc_0 >= -3838
 c434: u_a7 - u_a6 - 634 y_a6_proc_3 >= -2559
 c435: u_a7 - u_a6 - 1197 y_a6_proc_1 >= -2559
 c436: u_a6 - u_a7 - 1251 y_a7_proc_0 >= -1279
 c437: u_a6 - u_a7 - 535 y_a7_proc_3 >= 0
 c438: u_a6 - u_a7 - 1132 y_a7_proc_1 >= 0
 c439: u_a8 - u_a6 - 1001 y_a6_proc_0 >= -3838
 c440: u_a8 - u_a6 - 634 y_a6_proc_3 >= -2559
 c441: u_a8 - u_a6 - 1197 y_a6_proc_1 >= -2559
 c442: u_a6 - u_a8 - 774 y_a8_proc_0 >= -1279
 c443: u_a6 - u_a8 - 562 y_a8_proc_3 >= 0
 c444: u_a6 - u_a8 - 568 y_a8_proc_1 >= 0
 c445: u_a9 - u_a6 - 1001 y_a6_proc_0 >= -2559
 c446: u_a9 - u_a6 - 1197 y_a6_proc_1 >= -2559
 c447: u_a6 - u_a9 - 587 y_a9_proc_0 >= 0
 c448: u_a6 - u_a9 - 657 y_a9_proc_1 >= 0
 c449: u_a10 - u_a6 - 634 y_a6_proc_3 >= -2559
 c450: u_a6 - u_a10 - 306 y_a10_proc_3 >= 0
 c451: u_a11 - u_a6 - 1001 y_a6_proc_0 >= -1279
 c452: u_a11 - u_a6 - 634 y_a6_proc_3 >= 0
 c453: u_a11 - u_a6 - 1197 y_a6_proc_1 >= 0
 c454: u_a6 - u_a11 - 1277 y_a11_proc_0 >= -3838
 c455: u_a6 - u_a11 - 628 y_a11_proc_3 >= -2559
 c456: u_a6 - u_a11 - 769 y_a11_proc_1 >= -2559
 c457: u_a12 - u_a6 - 1001 y_a6_proc_0 >= -2559
 c458: u_a12 - u_a6 - 634 y_a6_proc_3 >= -3838
 c459: u_a12 - u_a6 - 1197 y_a6_proc_1 >= -2559
 c460: u_a6 - u_a12 - 638 y_a12_proc_0 >= 0
 c461: u_a6 - u_a12 - 630 y_a12_proc_3 >= -1279
 c462: u_a6 - u_a12 - 733 y_a12_proc_1 >= 0
 c463: u_a13 - u_a6 - 1001 y_a6_proc_0 >= -2558
 c464: u_a13 - u_a6 - 634 y_a6_proc_3 >= -3837
 c465: u_a6 - u_a13 - 1114 y_a13_proc_0 >= -1
 c466: u_a6 - u_a13 - 1078 y_a13_proc_3 >= -1280
 c467: u_a14 - u_a6 - 1001 y_a6_proc_0 >= -3838
 c468: u_a14 - u_a6 - 634 y_a6_proc_3 >= -3838
 c469: u_a14 - u_a6 - 1197 y_a6_proc_1 >= -2559
 c470: u_a6 - u_a14 - 1074 y_a14_proc_0 >= -1279
 c471: u_a6 - u_a14 - 993 y_a14_proc_3 >= -1279
 c472: u_a6 - u_a14 - 1279 y_a14_proc_1 >= 0
 c473: u_a8 - u_a7 - 1251 y_a7_proc_0 >= -2558
 c474: u_a8 - u_a7 - 535 y_a7_proc_3 >= 0
 c475: u_a8 - u_a7 - 1132 y_a7_proc_1 >= -2558
 c476: u_a7 - u_a8 - 774 y_a8_proc_0 >= -2559
 c477: u_a7 - u_a8 - 562 y_a8_proc_3 >= -1
 c478: u_a7 - u_a8 - 568 y_a8_proc_1 >= -2559
 c479: u_a9 - u_a7 - 1251 y_a7_proc_0 >= -2559
 c480: u_a9 - u_a7 - 1132 y_a7_proc_1 >= -3838
 c481: u_a7 - u_a9 - 587 y_a9_proc_0 >= 0
 c482: u_a7 - u_a9 - 657 y_a9_proc_1 >= -1279
 c483: u_a10 - u_a7 - 1092 y_a7_proc_2 >= -2558
 c484: u_a10 - u_a7 - 535 y_a7_proc_3 >= 0
 c485: u_a7 - u_a10 - 954 y_a10_proc_2 >= -2559
 c486: u_a7 - u_a10 - 306 y_a10_proc_3 >= -1
 c487: u_a11 - u_a7 - 1251 y_a7_proc_0 >= -2558
 c488: u_a11 - u_a7 - 1092 y_a7_proc_2 >= -2558
 c489: u_a11 - u_a7 - 535 y_a7_proc_3 >= 0
 c490: u_a11 - u_a7 - 1132 y_a7_proc_1 >= -2558
 c491: u_a7 - u_a11 - 1277 y_a11_proc_0 >= -2559
 c492: u_a7 - u_a11 - 983 y_a11_proc_2 >= -2559
 c493: u_a7 - u_a11 - 628 y_a11_proc_3 >= -1
 c494: u_a7 - u_a11 - 769 y_a11_proc_1 >= -2559
 c495: u_a12 - u_a7 - 1251 y_a7_proc_0 >= -2558
 c496: u_a12 - u_a7 - 535 y_a7_proc_3 >= -2558
 c497: u_a12 - u_a7 - 1132 y_a7_proc_1 >= -3837
 c498: u_a7 - u_a12 - 638 y_a12_proc_0 >= -1
 c499: u_a7 - u_a12 - 630 y_a12_proc_3 >= -1
 c500: u_a7 - u_a12 - 733 y_a12_proc_1 >= -1280
 c501: u_a13 - u_a7 - 1251 y_a7_proc_0 >= -2557
 c502: u_a13 - u_a7 - 1092 y_a7_proc_2 >= -3836
 c503: u_a13 - u_a7 - 535 y_a7_proc_3 >= -2557
 c504: u_a7 - u_a13 - 1114 y_a13_proc_0 >= -2
 c505: u_a7 - u_a13 - 891 y_a13_proc_2 >= -1281
 c506: u_a7 - u_a13 - 1078 y_a13_proc_3 >= -2
 c507: u_a14 - u_a7 - 1251 y_a7_proc_0 >= -3837
 c508: u_a14 - u_a7 - 1092 y_a7_proc_2 >= -2558
 c509: u_a14 - u_a7 - 535 y_a7_proc_3 >= -2558
 c510: u_a14 - u_a7 - 1132 y_a7_proc_1 >= -3837
 c511: u_a7 - u_a14 - 1074 y_a14_proc_0 >= -1280
 c512: u_a7 - u_a14 - 943 y_a14_proc_2 >= -1
 c513: u_a7 - u_a14 - 993 y_a14_proc_3 >= -1
 c514: u_a7 - u_a14 - 1279 y_a14_proc_1 >= -1280
 c515: u_a9 - u_a8 - 774 y_a8_proc_0 >= -2559
 c516: u_a9 - u_a8 - 568 y_a8_proc_1 >= -3838
 c517: u_a8 - u_a9 - 587 y_a9_proc_0 >= 0
 c518: u_a8 - u_a9 - 657 y_a9_proc_1 >= -1279
 c519: u_a10 - u_a8 - 562 y_a8_proc_3 >= -1
 c520: u_a8 - u_a10 - 306 y_a10_proc_3 >= 0
 c521: u_a11 - u_a8 - 774 y_a8_proc_0 >= -2558
 c522: u_a11 - u_a8 - 562 y_a8_proc_3 >= 0
 c523: u_a11 - u_a8 - 568 y_a8_proc_1 >= -2558
 c524: u_a8 - u_a11 - 1277 y_a11_proc_0 >= -2559
 c525: u_a8 - u_a11 - 628 y_a11_proc_3 >= -1
 c526: u_a8 - u_a11 - 769 y_a11_proc_1 >= -2559
 c527: u_a12 - u_a8 - 774 y_a8_proc_0 >= -2558
 c528: u_a12 - u_a8 - 562 y_a8_proc_3 >= -2558
 c529: u_a12 - u_a8 - 568 y_a8_proc_1 >= -3837
 c530: u_a8 - u_a12 - 638 y_a12_proc_0 >= -1
 c531: u_a8 - u_a12 - 630 y_a12_proc_3 >= -1
 c532: u_a8 - u_a12 - 733 y_a12_proc_1 >= -1280
 c533: u_a13 - u_a8 - 774 y_a8_proc_0 >= -2558
 c534: u_a13 - u_a8 - 562 y_a8_proc_3 >= -2558
 c535: u_a8 - u_a13 - 1114 y_a13_proc_0 >= -1
 c536: u_a8 - u_a13 - 1078 y_a13_proc_3 >= -1
 c537: u_a14 - u_a8 - 774 y_a8_proc_0 >= -3838
 c538: u_a14 - u_a8 - 562 y_a8_proc_3 >= -2559
 c539: u_a14 - u_a8 - 568 y_a8_proc_1 >= -3838
 c540: u_a8 - u_a14 - 1074 y_a14_proc_0 >= -1279
 c541: u_a8 - u_a14 - 993 y_a14_proc_3 >= 0
 c542: u_a8 - u_a14 - 1279 y_a14_proc_1 >= -1279
 c543: u_a11 - u_a9 - 587 y_a9_proc_0 >= -2557
 c544: u_a11 - u_a9 - 657 y_a9_proc_1 >= -3836
 c545: u_a9 - u_a11 - 1277 y_a11_proc_0 >= -2
 c546: u_a9 - u_a11 - 769 y_a11_proc_1 >= -1281
 c547: u_a12 - u_a9 - 587 y_a9_proc_0 >= 0
 c548: u_a12 - u_a9 - 657 y_a9_proc_1 >= -2558
 c549: u_a9 - u_a12 - 638 y_a12_proc_0 >= -1
 c550: u_a9 - u_a12 - 733 y_a12_proc_1 >= -2559
 c551: u_a13 - u_a9 - 587 y_a9_proc_0 >= 1
 c552: u_a9 - u_a13 - 1114 y_a13_proc_0 >= -2
 c553: u_a14 - u_a9 - 587 y_a9_proc_0 >= -2558
 c554: u_a14 - u_a9 - 657 y_a9_proc_1 >= -3837
 c555: u_a9 - u_a14 - 1074 y_a14_proc_0 >= -1
 c556: u_a9 - u_a14 - 1279 y_a14_proc_1 >= -1280
 c557: u_a11 - u_a10 - 954 y_a10_proc_2 >= -2558
 c558: u_a11 - u_a10 - 306 y_a10_proc_3 >= 0
 c559: u_a10 - u_a11 - 983 y_a11_proc_2 >= -2559
 c560: u_a10 - u_a11 - 628 y_a11_proc_3 >= -1
 c561: u_a12 - u_a10 - 306 y_a10_proc_3 >= -2558
 c562: u_a10 - u_a12 - 630 y_a12_proc_3 >= -1
 c563: u_a13 - u_a10 - 954 y_a10_proc_2 >= -3837
 c564: u_a13 - u_a10 - 306 y_a10_proc_3 >= -2558
 c565: u_a10 - u_a13 - 891 y_a13_proc_2 >= -1280
 c566: u_a10 - u_a13 - 1078 y_a13_proc_3 >= -1
 c567: u_a14 - u_a10 - 954 y_a10_proc_2 >= -2559
 c568: u_a14 - u_a10 - 306 y_a10_proc_3 >= -2559
 c569: u_a10 - u_a14 - 943 y_a14_proc_2 >= 0
 c570: u_a10 - u_a14 - 993 y_a14_proc_3 >= 0
 c571: u_a12 - u_a11 - 1277 y_a11_proc_0 >= -2559
 c572: u_a12 - u_a11 - 628 y_a11_proc_3 >= -2559
 c573: u_a12 - u_a11 - 769 y_a11_proc_1 >= -3838
 c574: u_a11 - u_a12 - 638 y_a12_proc_0 >= 0
 c575: u_a11 - u_a12 - 630 y_a12_proc_3 >= 0
 c576: u_a11 - u_a12 - 733 y_a12_proc_1 >= -1279
 c577: u_a13 - u_a11 - 1277 y_a11_proc_0 >= -2558
 c578: u_a13 - u_a11 - 983 y_a11_proc_2 >= -3837
 c579: u_a13 - u_a11 - 628 y_a11_proc_3 >= -2558
 c580: u_a11 - u_a13 - 1114 y_a13_proc_0 >= -1
 c581: u_a11 - u_a13 - 891 y_a13_proc_2 >= -1280
 c582: u_a11 - u_a13 - 1078 y_a13_proc_3 >= -1
 c583: u_a14 - u_a11 - 1277 y_a11_proc_0 >= -3838
 c584: u_a14 - u_a11 - 983 y_a11_proc_2 >= -2559
 c585: u_a14 - u_a11 - 628 y_a11_proc_3 >= -2559
 c586: u_a14 - u_a11 - 769 y_a11_proc_1 >= -3838
 c587: u_a11 - u_a14 - 1074 y_a14_proc_0 >= -1279
 c588: u_a11 - u_a14 - 943 y_a14_proc_2 >= 0
 c589: u_a11 - u_a14 - 993 y_a14_proc_3 >= 0
 c590: u_a11 - u_a14 - 1279 y_a14_proc_1 >= -1279
 c591: u_a13 - u_a12 - 638 y_a12_proc_0 >= 0
 c592: u_a13 - u_a12 - 630 y_a12_proc_3 >= -2558
 c593: u_a12 - u_a13 - 1114 y_a13_proc_0 >= -1
 c594: u_a12 - u_a13 - 1078 y_a13_proc_3 >= -2559
 c595: u_a14 - u_a12 - 638 y_a12_proc_0 >= -2559
 c596: u_a14 - u_a12 - 630 y_a12_proc_3 >= -3838
 c597: u_a14 - u_a12 - 733 y_a12_proc_1 >= -3838
 c598: u_a12 - u_a14 - 1074 y_a14_proc_0 >= 0
 c599: u_a12 - u_a14 - 993 y_a14_proc_3 >= -1279
 c600: u_a12 - u_a14 - 1279 y_a14_proc_1 >= -1279
 c601: u_a14 - u_a13 - 1114 y_a13_proc_0 >= -2559
 c602: u_a14 - u_a13 - 891 y_a13_proc_2 >= -2559
 c603: u_a14 - u_a13 - 1078 y_a13_proc_3 >= -3838
 c604: u_a13 - u_a14 - 1074 y_a14_proc_0 >= 0
 c605: u_a13 - u_a14 - 943 y_a14_proc_2 >= 0
 c606: u_a13 - u_a14 - 993 y_a14_proc_3 >= -1279

Bounds
End
